
******************************************************************************
This program contains Ipopt, a library for large-scale nonlinear optimization.
 Ipopt is released as open source code under the Eclipse Public License (EPL).
         For more information visit http://projects.coin-or.org/Ipopt

This version of Ipopt was compiled from source code available at
    https://github.com/IDAES/Ipopt as part of the Institute for the Design of
    Advanced Energy Systems Process Systems Engineering Framework (IDAES PSE
    Framework) Copyright (c) 2018-2019. See https://github.com/IDAES/idaes-pse.

This version of Ipopt was compiled using HSL, a collection of Fortran codes
    for large-scale scientific computation.  All technical papers, sales and
    publicity material resulting from use of the HSL codes within IPOPT must
    contain the following acknowledgement:
        HSL, a collection of Fortran codes for large-scale scientific
        computation. See http://www.hsl.rl.ac.uk.
******************************************************************************

This is Ipopt version 3.13.2, running with linear solver ma27.

Number of nonzeros in equality constraint Jacobian...:     1336
Number of nonzeros in inequality constraint Jacobian.:        0
Number of nonzeros in Lagrangian Hessian.............:     1696

Total number of variables............................:      512
                     variables with only lower bounds:      128
                variables with lower and upper bounds:      320
                     variables with only upper bounds:        0
Total number of equality constraints.................:      508
Total number of inequality constraints...............:        0
        inequality constraints with only lower bounds:        0
   inequality constraints with lower and upper bounds:        0
        inequality constraints with only upper bounds:        0

iter    objective    inf_pr   inf_du lg(mu)  ||d||  lg(rg) alpha_du alpha_pr  ls
   0  0.0000000e+00 1.34e+00 1.75e-14  -1.0 0.00e+00    -  0.00e+00 0.00e+00   0
   1  5.0560981e+00 1.18e+00 6.96e+05  -1.0 1.42e+06    -  7.31e-02 1.22e-01h  3
   2  1.6447345e+01 1.02e+00 8.33e+05  -1.0 2.13e+06    -  1.05e-01 1.37e-01h  1
   3  1.6584790e+01 1.01e+00 8.30e+05  -1.0 1.19e+06    -  3.11e-01 3.01e-03h  1
   4  1.7200803e+01 1.00e+00 8.23e+05  -1.0 2.12e+06    -  2.12e-01 8.66e-03h  1
   5  5.0557614e+01 1.61e+00 1.42e+06  -1.0 2.79e+06    -  2.37e-01 1.88e-01h  1
   6  5.1082810e+01 1.60e+00 1.42e+06  -1.0 3.08e+06    -  2.45e-01 1.98e-03h  1
   7  9.4762890e+01 1.47e+00 1.82e+06  -1.0 4.93e+06    -  7.96e-04 8.53e-02h  1
   8  9.4920223e+01 1.47e+00 1.82e+06  -1.0 3.11e+06    -  1.79e-01 4.01e-04H  1
   9  1.0373540e+02 1.44e+00 1.79e+06  -1.0 4.00e+06    -  2.48e-01 1.61e-02h  1
iter    objective    inf_pr   inf_du lg(mu)  ||d||  lg(rg) alpha_du alpha_pr  ls
  10  1.0839252e+02 1.43e+00 1.78e+06  -1.0 4.42e+06    -  2.91e-01 7.89e-03h  7
  11  1.0865791e+02 1.43e+00 1.78e+06  -1.0 3.28e+06  -4.0 4.24e-04 5.21e-04h  1
  12  1.6248178e+02 1.30e+00 4.04e+07  -1.0 3.23e+06  -4.5 1.28e-05 9.24e-02h  3
  13  1.6305132e+02 1.29e+00 4.02e+07  -1.0 1.69e+06  -5.0 3.65e-01 3.22e-03h  1
  14  1.6302703e+02 1.29e+00 4.02e+07  -1.0 1.06e+07    -  3.19e-03 2.96e-05h  1
  15  1.6267085e+02 1.29e+00 4.02e+07  -1.0 8.05e+06    -  4.04e-05 5.74e-04f  4
  16  1.6329424e+02 1.28e+00 4.01e+07  -1.0 5.59e+06  -5.4 7.49e-07 1.02e-02f  1
  17  1.6408169e+02 1.27e+00 3.98e+07  -1.0 1.12e+06  -5.0 4.37e-01 6.43e-03f  6
  18  1.6611760e+02 1.27e+00 3.97e+07  -1.0 1.16e+07  -5.5 3.52e-03 2.80e-03f  5
  19  1.7229244e+02 1.21e+00 3.63e+07  -1.0 8.35e+05  -5.1 5.25e-01 4.67e-02h  3
iter    objective    inf_pr   inf_du lg(mu)  ||d||  lg(rg) alpha_du alpha_pr  ls
  20  1.7698126e+02 1.19e+00 3.59e+07  -1.0 5.55e+06    -  1.68e-02 1.36e-02h  3
  21  1.9184306e+02 1.11e+00 3.24e+07  -1.0 2.41e+06    -  3.23e-01 6.63e-02h  1
  22  1.9183691e+02 1.11e+00 3.23e+07  -1.0 2.27e+06  -5.5 1.69e-01 5.88e-04h  1
  23  1.9391472e+02 1.10e+00 3.19e+07  -1.0 4.68e+06    -  2.17e-01 1.28e-02h  4
  24  1.9387623e+02 1.10e+00 3.18e+07  -1.0 3.13e+06    -  6.47e-03 3.34e-03h  5
  25  1.9378221e+02 1.33e+00 3.16e+07  -1.0 3.87e+06    -  4.86e-05 5.02e-03f  4
  26  1.9384833e+02 1.33e+00 3.16e+07  -1.0 2.81e+05  -5.1 8.70e-01 6.51e-04h  2
  27  1.9388369e+02 1.33e+00 3.16e+07  -1.0 7.11e+05  -5.6 5.10e-01 4.98e-04h  2
  28  1.9393581e+02 1.33e+00 3.16e+07  -1.0 3.23e+06    -  5.71e-02 1.98e-04h  9
  29  1.9406361e+02 1.32e+00 3.16e+07  -1.0 1.02e+07    -  1.72e-04 2.64e-04h  7
iter    objective    inf_pr   inf_du lg(mu)  ||d||  lg(rg) alpha_du alpha_pr  ls
  30  1.9406705e+02 1.32e+00 3.16e+07  -1.0 9.58e+05  -5.2 9.79e-02 1.81e-05h  6
  31  1.9359452e+02 6.46e+00 3.13e+07  -1.0 2.58e+06  -5.6 1.82e-03 7.91e-03f  3
  32  1.9366616e+02 6.45e+00 3.13e+07  -1.0 2.17e+06  -5.2 3.58e-02 2.45e-04h  4
  33  1.9395349e+02 6.43e+00 3.12e+07  -1.0 2.51e+05  -4.8 9.90e-01 3.99e-03w  1
  34  2.1564095e+02 6.19e+00 2.88e+07  -1.0 3.77e+06    -  3.76e-02 3.76e-02w  1
  35  2.1609979e+02 6.18e+00 2.88e+07  -1.0 5.37e+06    -  6.79e-03 7.27e-04w  1
  36  1.9368410e+02 6.45e+00 3.13e+07  -1.0 1.09e+06  -5.3 9.90e-01 2.50e-04h  4
  37  1.9369081e+02 6.45e+00 3.13e+07  -1.0 4.13e+06    -  3.36e-02 1.68e-05h 12
  38  1.9369183e+02 6.45e+00 3.13e+07  -1.0 2.56e+05  -4.8 9.90e-01 1.52e-05h  9
  39  2.1599164e+02 6.22e+00 2.89e+07  -1.0 3.95e+06    -  3.66e-02 3.66e-02s 18
iter    objective    inf_pr   inf_du lg(mu)  ||d||  lg(rg) alpha_du alpha_pr  ls
  40  2.1648383e+02 6.21e+00 2.89e+07  -1.0 5.59e+06    -  7.67e-04 7.67e-04s 18
  41r 2.1648383e+02 6.21e+00 1.00e+03   0.8 0.00e+00    -  0.00e+00 0.00e+00R  1
  42r 2.1648369e+02 3.32e+00 1.01e+03   0.8 5.93e+03    -  1.89e-02 1.04e-03f  1
  43r 2.1648015e+02 3.19e+00 9.99e+02   0.8 8.68e+02    -  8.67e-03 2.03e-02f  1
  44r 2.1647570e+02 3.09e+00 9.64e+02   0.8 7.38e+02    -  4.07e-02 3.22e-02f  1
  45r 2.1647138e+02 1.01e+01 9.35e+02   0.8 3.24e+02    -  3.47e-02 7.26e-02f  1
  46r 2.1647173e+02 9.74e+00 8.34e+02   0.8 2.03e+02    -  1.21e-01 3.81e-02f  1
  47r 2.1647394e+02 8.75e+00 7.88e+02   0.8 8.63e+01    -  5.64e-01 1.01e-01f  1
  48r 2.1647985e+02 4.86e+00 4.27e+02   0.8 6.04e+01    -  2.87e-01 4.45e-01f  1
  49  2.1649473e+02 4.82e+00 6.96e+01  -1.0 2.99e+05    -  5.71e-01 8.05e-03h  1
iter    objective    inf_pr   inf_du lg(mu)  ||d||  lg(rg) alpha_du alpha_pr  ls
  50  2.1653161e+02 4.82e+00 1.86e+04  -1.0 1.22e+06    -  4.15e-01 1.15e-03h  1
  51  2.2354533e+02 4.69e+00 1.85e+05  -1.0 3.27e+06    -  2.78e-01 2.71e-02h  1
  52  2.6059413e+02 4.47e+00 1.44e+05  -1.0 5.54e+06    -  2.61e-01 4.69e-02h  1
  53  3.2959613e+02 4.29e+00 9.36e+04  -1.0 9.38e+06    -  1.91e-01 4.01e-02h  2
  54  5.3473622e+02 3.95e+00 1.90e+05  -1.0 1.12e+07    -  8.64e-02 7.84e-02h  2
  55  1.0118649e+03 3.59e+00 4.67e+05  -1.0 1.63e+07    -  1.47e-03 9.26e-02h  1
  56  1.1902464e+03 3.53e+00 4.97e+05  -1.0 2.84e+07    -  1.49e-01 1.68e-02h  1
  57  2.7296520e+03 3.20e+00 2.10e+06  -1.0 3.35e+07    -  2.00e-02 9.30e-02h  3
  58  3.8370002e+03 3.14e+00 3.30e+06  -1.0 1.05e+08    -  1.36e-02 1.68e-02h  1
  59  5.8147447e+03 3.08e+00 1.08e+07  -1.0 1.33e+08    -  1.37e-03 1.98e-02h  1
iter    objective    inf_pr   inf_du lg(mu)  ||d||  lg(rg) alpha_du alpha_pr  ls
  60  5.5913301e+03 2.99e+00 1.05e+07  -1.0 9.37e+06    -  1.00e-02 2.85e-02f  4
  61  5.4102558e+03 2.88e+00 1.01e+07  -1.0 6.01e+06    -  3.81e-02 3.75e-02f  4
  62  5.2631653e+03 2.77e+00 9.67e+06  -1.0 5.05e+06    -  7.55e-02 3.83e-02f  4
  63  5.2314391e+03 2.74e+00 9.57e+06  -1.0 4.47e+06    -  2.01e-01 1.00e-02f  6
  64  5.2135415e+03 2.73e+00 9.51e+06  -1.0 5.31e+06    -  1.82e-01 5.49e-03f  7
  65  4.9477878e+03 1.50e+01 6.88e+06  -1.0 5.53e+06    -  1.63e-01 1.99e-01f  2
  66  4.9766906e+03 1.46e+01 6.61e+06  -1.0 2.66e+06    -  4.40e-01 2.88e-02h  5
  67  5.0101738e+03 1.41e+01 6.34e+06  -1.0 3.12e+06    -  8.13e-02 3.23e-02h  5
  68  5.0260405e+03 1.40e+01 6.27e+06  -1.0 3.75e+06    -  5.21e-04 9.32e-03h  7
  69  5.0289183e+03 1.39e+01 6.25e+06  -1.0 3.15e+06    -  7.30e-05 3.54e-03h  8
iter    objective    inf_pr   inf_du lg(mu)  ||d||  lg(rg) alpha_du alpha_pr  ls
  70  5.0289042e+03 1.39e+01 6.25e+06  -1.0 1.42e+06  -5.3 7.11e-01 5.53e-04h  1
  71  5.0281035e+03 1.38e+01 6.20e+06  -1.0 3.55e+06    -  1.06e-04 6.76e-03f  7
  72  5.0280945e+03 1.38e+01 6.20e+06  -1.0 1.25e+06  -5.8 7.57e-01 3.67e-04h  1
  73  4.9380738e+03 2.46e+01 1.38e+07  -1.0 5.84e+06    -  1.66e-03 3.82e-01f  1
  74  4.9381079e+03 2.45e+01 1.38e+07  -1.0 1.18e+06  -6.3 2.02e-01 8.52e-04h  1
  75  4.9376386e+03 2.45e+01 1.38e+07  -1.0 2.29e+06  -6.7 2.34e-01 2.90e-03h  1
  76  4.9285600e+03 2.01e+01 1.05e+07  -1.0 2.33e+06  -7.2 2.70e-01 1.78e-01f  3
  77  3.6752165e+03 1.38e+01 6.76e+06  -1.0 6.06e+06    -  2.79e-01 3.14e-01f  1
  78  3.6760947e+03 1.37e+01 6.69e+06  -1.0 2.92e+06  -6.8 1.31e-01 9.69e-03h  2
  79  3.6787890e+03 1.37e+01 6.69e+06  -1.0 1.03e+08  -7.3 7.02e-02 2.02e-04h  5
iter    objective    inf_pr   inf_du lg(mu)  ||d||  lg(rg) alpha_du alpha_pr  ls
  80  3.6787951e+03 1.36e+01 6.68e+06  -1.0 2.86e+06  -6.8 2.16e-01 1.23e-03h  4
  81  3.6710855e+03 3.27e+01 5.81e+07  -1.0 1.81e+08  -7.3 8.84e-04 4.49e-03f  3
  82  3.6717425e+03 3.27e+01 5.81e+07  -1.0 1.26e+07  -7.8 8.21e-03 8.07e-05h  1
  83  3.6728151e+03 3.27e+01 5.81e+07  -1.0 4.17e+07  -8.3 9.94e-03 3.89e-05h  9
  84  3.6752894e+03 3.27e+01 5.81e+07  -1.0 1.86e+08  -8.8 8.02e-06 2.00e-05h 10
  85  3.6756418e+03 3.27e+01 5.81e+07  -1.0 5.27e+07  -8.3 8.91e-07 1.01e-05h 11
  86r 3.6756418e+03 3.27e+01 1.00e+03   1.5 0.00e+00  -7.9 0.00e+00 3.95e-07R  5
  87r 3.6756423e+03 2.65e+01 1.78e+03   1.5 1.31e+05    -  2.55e-03 4.49e-04f  1
  88  3.6756399e+03 2.65e+01 1.79e+02  -1.0 2.55e+05    -  8.48e-03 3.26e-05h  2
  89  3.6754003e+03 2.65e+01 3.21e+05  -1.0 2.53e+05    -  8.74e-03 2.55e-03h  2
iter    objective    inf_pr   inf_du lg(mu)  ||d||  lg(rg) alpha_du alpha_pr  ls
  90  3.6545891e+03 8.31e+01 9.44e+05  -1.0 2.91e+05    -  1.02e-02 9.90e-01f  1
  91  3.6557460e+03 2.15e+02 9.35e+05  -1.0 1.46e+06    -  5.61e-03 8.63e-03f  1
  92  3.6557235e+03 2.15e+02 9.35e+05  -1.0 3.45e+06    -  8.87e-03 8.82e-05h  2
  93  3.6559462e+03 2.15e+02 9.35e+05  -1.0 2.50e+06    -  7.32e-03 5.04e-04h  2
  94  3.6567647e+03 2.15e+02 9.34e+05  -1.0 5.23e+06    -  7.64e-03 2.62e-04h  2
  95  3.6797335e+03 2.14e+02 9.34e+05  -1.0 7.57e+07    -  4.97e-04 4.97e-04s 11
  96  3.7223345e+03 2.14e+02 1.29e+06  -1.0 6.24e+07    -  1.54e-03 1.54e-03s 11
  97  3.7172185e+03 2.13e+02 2.70e+06  -1.0 2.65e+07    -  4.15e-03 4.15e-03s 11
  98  3.6784099e+03 2.13e+02 1.86e+06  -1.0 8.96e+07    -  6.75e-04 6.75e-04s 11
  99  3.6739972e+03 2.12e+02 1.25e+06  -1.0 2.90e+07    -  3.04e-03 3.04e-03s 11
iter    objective    inf_pr   inf_du lg(mu)  ||d||  lg(rg) alpha_du alpha_pr  ls
 100r 3.6739972e+03 2.12e+02 1.00e+03   2.3 0.00e+00    -  0.00e+00 0.00e+00R  1
 101r 3.6739971e+03 1.82e+02 1.85e+03   2.3 1.43e+04    -  3.35e-04 5.66e-03f  1
 102r 3.6739971e+03 1.82e+02 9.99e+02   2.3 0.00e+00    -  0.00e+00 4.37e-07R  4
 103r 3.6739964e+03 1.04e+02 9.87e+02   2.3 6.18e+03    -  1.04e-03 1.26e-02f  1
 104  3.6022480e+03 1.04e+02 3.41e+07  -1.0 2.26e+09    -  7.58e-06 1.14e-04f  1
 105  3.6170502e+03 1.04e+02 4.43e+07  -1.0 4.88e+10  -5.7 4.85e-06 2.74e-06h  1
 106  3.6169915e+03 1.04e+02 8.89e+07  -1.0 8.82e+09  -5.2 5.19e-05 4.51e-08h  1
 107  3.5959502e+03 1.04e+02 7.85e+20  -1.0 2.58e+14  -4.8 1.71e-09 6.01e-10f  1
MA27BD returned iflag=-4 and requires more memory.
 Increase liw from 21955 to 43910 and la from 25360 to 52898 and factorize again.
 108  3.5982679e+03 1.04e+02 2.61e+33  -1.0 2.38e+07  17.0 5.14e-04 3.53e-03h  1
 109  3.6008089e+03 1.04e+02 3.35e+40  -1.0 1.70e+08  19.3 4.78e-05 1.42e-04h  6
Scaling factors are invalid - setting them all to 1.
Scaling factors are invalid - setting them all to 1.
MA27BD returned iflag=-4 and requires more memory.
 Increase liw from 43910 to 87820 and la from 52898 to 108684 and factorize again.
Scaling factors are invalid - setting them all to 1.
Scaling factors are invalid - setting them all to 1.
Scaling factors are invalid - setting them all to 1.
Scaling factors are invalid - setting them all to 1.
Scaling factors are invalid - setting them all to 1.
Scaling factors are invalid - setting them all to 1.
Scaling factors are invalid - setting them all to 1.
Scaling factors are invalid - setting them all to 1.
Scaling factors are invalid - setting them all to 1.
Scaling factors are invalid - setting them all to 1.
Scaling factors are invalid - setting them all to 1.
Scaling factors are invalid - setting them all to 1.
Scaling factors are invalid - setting them all to 1.
Scaling factors are invalid - setting them all to 1.
WARNING: Problem in step computation; switching to emergency mode.
iter    objective    inf_pr   inf_du lg(mu)  ||d||  lg(rg) alpha_du alpha_pr  ls
 110r 3.6008089e+03 1.04e+02 1.00e+03   2.0 0.00e+00  20.0 0.00e+00 0.00e+00R  1
 111r 3.6008090e+03 1.61e+01 9.95e+02   2.0 4.19e+04    -  7.39e-03 2.46e-03f  1
 112  3.6008076e+03 1.61e+01 2.26e+02  -1.0 2.71e+11    -  3.01e-10 7.05e-11h  3
 113r 3.6008076e+03 1.61e+01 9.99e+02   1.2 0.00e+00    -  0.00e+00 1.21e-15R 18
 114r 3.6008078e+03 5.84e+01 1.02e+06   1.2 2.35e+03    -  1.82e-02 3.05e-03f  1
 115r 3.6008078e+03 1.51e+01 8.61e+23   1.2 2.74e+00  18.0 1.22e-02 5.43e-03h  1
Scaling factors are invalid - setting them all to 1.
Scaling factors are invalid - setting them all to 1.
Scaling factors are invalid - setting them all to 1.
Scaling factors are invalid - setting them all to 1.
Scaling factors are invalid - setting them all to 1.
Scaling factors are invalid - setting them all to 1.
Scaling factors are invalid - setting them all to 1.
Scaling factors are invalid - setting them all to 1.
Scaling factors are invalid - setting them all to 1.
Scaling factors are invalid - setting them all to 1.
Scaling factors are invalid - setting them all to 1.
Scaling factors are invalid - setting them all to 1.
Scaling factors are invalid - setting them all to 1.
Scaling factors are invalid - setting them all to 1.
Scaling factors are invalid - setting them all to 1.
Scaling factors are invalid - setting them all to 1.
Scaling factors are invalid - setting them all to 1.
WARNING: Problem in step computation; switching to emergency mode.
 116r 3.6008078e+03 1.51e+01 8.61e+23   1.2 2.74e+00  20.0 0.00e+00 0.00e+00R  1
Scaling factors are invalid - setting them all to 1.
Scaling factors are invalid - setting them all to 1.
Scaling factors are invalid - setting them all to 1.
Scaling factors are invalid - setting them all to 1.
Scaling factors are invalid - setting them all to 1.
Scaling factors are invalid - setting them all to 1.
Scaling factors are invalid - setting them all to 1.
Scaling factors are invalid - setting them all to 1.
Scaling factors are invalid - setting them all to 1.
Scaling factors are invalid - setting them all to 1.
Scaling factors are invalid - setting them all to 1.
Scaling factors are invalid - setting them all to 1.
Scaling factors are invalid - setting them all to 1.
Scaling factors are invalid - setting them all to 1.
WARNING: Problem in step computation; switching to emergency mode.
Restoration phase is called at point that is almost feasible,
  with constraint violation 0.000000e+00. Abort.
Restoration phase in the restoration phase failed.

Number of Iterations....: 116

                                   (scaled)                 (unscaled)
Objective...............:   3.6008077863182921e+03    3.6008077863182921e+03
Dual infeasibility......:   8.6103746276910637e+23    8.6103746276910637e+23
Constraint violation....:   1.5097120515321194e+01    1.5097120515321194e+01
Complementarity.........:   2.5376799779608309e+08    2.5376799779608309e+08
Overall NLP error.......:   3.1450417581545703e+12    8.6103746276910637e+23


Number of objective function evaluations             = 423
Number of objective gradient evaluations             = 108
Number of equality constraint evaluations            = 423
Number of inequality constraint evaluations          = 0
Number of equality constraint Jacobian evaluations   = 122
Number of inequality constraint Jacobian evaluations = 0
Number of Lagrangian Hessian evaluations             = 117
Total CPU secs in IPOPT (w/o function evaluations)   =      0.628
Total CPU secs in NLP function evaluations           =      5.493

EXIT: Restoration Failed!
